
Gurobi 9.0.2 (win64, .NET) logging started Wed Oct  7 23:22:47 2020

Academic license - for non-commercial use only
Gurobi Optimizer version 9.0.2 build v9.0.2rc0 (win64)
Optimize a model with 115 rows, 912 columns and 3621 nonzeros
Model fingerprint: 0xe9416002
Variable types: 0 continuous, 912 integer (912 binary)
Coefficient statistics:
  Matrix range     [1e+00, 1e+02]
  Objective range  [2e+01, 1e+04]
  Bounds range     [1e+00, 1e+00]
  RHS range        [1e+00, 3e+00]
Found heuristic solution: objective 77966.028655
Presolve removed 4 rows and 1 columns
Presolve time: 0.00s
Presolved: 111 rows, 911 columns, 2711 nonzeros
Variable types: 0 continuous, 911 integer (911 binary)

Root relaxation: objective 3.668206e+04, 146 iterations, 0.00 seconds

    Nodes    |    Current Node    |     Objective Bounds      |     Work
 Expl Unexpl |  Obj  Depth IntInf | Incumbent    BestBd   Gap | It/Node Time

     0     0 36682.0589    0    3 77966.0287 36682.0589  53.0%     -    0s
H    0     0                    56682.058887 36682.0589  35.3%     -    0s
     0     0 36682.0589    0    7 56682.0589 36682.0589  35.3%     -    0s
     0     0 36682.0589    0    7 56682.0589 36682.0589  35.3%     -    0s
     0     2 36682.0589    0    7 56682.0589 36682.0589  35.3%     -    0s
H    9    12                    51930.387912 41930.3879  19.3%  27.6    0s
*   11    11               6    50177.678435 42563.7107  15.2%  36.5    0s

Cutting planes:
  Cover: 3
  Clique: 97
  MIR: 3

Explored 47 nodes (1427 simplex iterations) in 0.37 seconds
Thread count was 4 (of 4 available processors)

Solution count 4: 50177.7 51930.4 56682.1 77966 

Optimal solution found (tolerance 1.00e-04)
Best objective 5.017767843454e+04, best bound 5.017767843454e+04, gap 0.0000%
